NAME : 	all_merged_clusters_chengdu_min200
COMMENT : 	"Generated from Chengdu merged cluster data with count >= 200"
TYPE : 	CVRP
DIMENSION : 	51
EDGE_WEIGHT_TYPE : 	EUC_2D
CAPACITY : 	999999
NODE_COORD_SECTION
1	10407000	3067000
2	10370156	3060254
3	10396947	3064957
4	10406980	3076851
5	10391301	3063091
6	10448904	3049364
7	10409344	3058136
8	10424278	3065056
9	10404417	3044605
10	10422152	3063881
11	10420314	3072605
12	10366127	3096116
13	10411300	3075220
14	10423542	3064651
15	10389653	3066640
16	10393802	3061444
17	10391726	3068390
18	10450925	3035358
19	10393572	3090550
20	10431939	3027693
21	10405078	3047619
22	10398150	3078517
23	10416482	3065872
24	10389985	3083530
25	10432650	3086019
26	10392318	3071697
27	10417658	3071757
28	10422533	3079309
29	10381403	3063275
30	10388346	3066592
31	10400748	3059161
32	10386136	3080398
33	10404686	3042783
34	10424403	3064560
35	10412526	3076947
36	10411847	3075716
37	10439211	3028422
38	10390906	3054339
39	10430868	3086528
40	10432353	3064502
41	10405018	3054117
42	10393811	3061929
43	10418488	3071833
44	10421479	3058311
45	10390260	3065840
46	10423773	3065298
47	10396477	3063702
48	10416881	3074138
49	10383827	3035929
50	10407107	3072556
51	10367853	3102964
DEMAND_SECTION
1	0
2	1
3	1
4	1
5	1
6	1
7	1
8	1
9	1
10	1
11	1
12	1
13	1
14	1
15	1
16	1
17	1
18	1
19	1
20	1
21	1
22	1
23	1
24	1
25	1
26	1
27	1
28	1
29	1
30	1
31	1
32	1
33	1
34	1
35	1
36	1
37	1
38	1
39	1
40	1
41	1
42	1
43	1
44	1
45	1
46	1
47	1
48	1
49	1
50	1
51	1
DEPOT_SECTION
	1
	-1
EOF
