NAME : 	all_merged_clusters_chengdu_min100
COMMENT : 	"Generated from Chengdu merged cluster data with count >= 100"
TYPE : 	CVRP
DIMENSION : 	118
EDGE_WEIGHT_TYPE : 	EUC_2D
CAPACITY : 	999999
NODE_COORD_SECTION
1	10407000	3067000
2	10411402	3057949
3	10370156	3060254
4	10396947	3064957
5	10406980	3076851
6	10391301	3063091
7	10448904	3049364
8	10346010	3074705
9	10409344	3058136
10	10424278	3065056
11	10385023	3043744
12	10418354	3071059
13	10404417	3044605
14	10433323	3064450
15	10398844	3062772
16	10422152	3063881
17	10420314	3072605
18	10390541	3081054
19	10417292	3048429
20	10385923	3082753
21	10366127	3096116
22	10411300	3075220
23	10413506	3080592
24	10417873	3078292
25	10423542	3064651
26	10389653	3066640
27	10409599	3054107
28	10393802	3061444
29	10391726	3068390
30	10450925	3035358
31	10393572	3090550
32	10431939	3027693
33	10405078	3047619
34	10404116	3059339
35	10398150	3078517
36	10365474	3092640
37	10416482	3065872
38	10422393	3056642
39	10389985	3083530
40	10432650	3086019
41	10392318	3071697
42	10417658	3071757
43	10416155	3059970
44	10422533	3079309
45	10381403	3063275
46	10406129	3041876
47	10388346	3066592
48	10400748	3059161
49	10386136	3080398
50	10404686	3042783
51	10424403	3064560
52	10406967	3069114
53	10412526	3076947
54	10387176	3077939
55	10411847	3075716
56	10439211	3028422
57	10390906	3054339
58	10405603	3084786
59	10409978	3046714
60	10416599	3071244
61	10388701	3052852
62	10425548	3053119
63	10430868	3086528
64	10432353	3064502
65	10405018	3054117
66	10389312	3051373
67	10395772	3066269
68	10355317	3022105
69	10388831	3055638
70	10393811	3061929
71	10418488	3071833
72	10421479	3058311
73	10390260	3065840
74	10407992	3051308
75	10423773	3065298
76	10396936	3036650
77	10419841	3058203
78	10396477	3063702
79	10391271	3082475
80	10412013	3077294
81	10387998	3040436
82	10397212	3054226
83	10431206	3029867
84	10349853	3056884
85	10416881	3074138
86	10425476	3085924
87	10383827	3035929
88	10451286	3042040
89	10407107	3072556
90	10387067	3070211
91	10410687	3049127
92	10420357	3073178
93	10407764	3079474
94	10386715	3053506
95	10417081	3061523
96	10395988	3051740
97	10397767	3068851
98	10356104	3074874
99	10391443	3067578
100	10367853	3102964
101	10421427	3065141
102	10432729	3030655
103	10391636	3036929
104	10408361	3045560
105	10395232	3042798
106	10431576	3030289
107	10422614	3052520
108	10350587	3055912
109	10431870	3086116
110	10411589	3058433
111	10452210	3042985
112	10409252	3052420
113	10379696	3064491
114	10410622	3058727
115	10410935	3050679
116	10392114	3070300
117	10414952	3062258
118	10367759	3033880
DEMAND_SECTION
1	0
2	1
3	1
4	1
5	1
6	1
7	1
8	1
9	1
10	1
11	1
12	1
13	1
14	1
15	1
16	1
17	1
18	1
19	1
20	1
21	1
22	1
23	1
24	1
25	1
26	1
27	1
28	1
29	1
30	1
31	1
32	1
33	1
34	1
35	1
36	1
37	1
38	1
39	1
40	1
41	1
42	1
43	1
44	1
45	1
46	1
47	1
48	1
49	1
50	1
51	1
52	1
53	1
54	1
55	1
56	1
57	1
58	1
59	1
60	1
61	1
62	1
63	1
64	1
65	1
66	1
67	1
68	1
69	1
70	1
71	1
72	1
73	1
74	1
75	1
76	1
77	1
78	1
79	1
80	1
81	1
82	1
83	1
84	1
85	1
86	1
87	1
88	1
89	1
90	1
91	1
92	1
93	1
94	1
95	1
96	1
97	1
98	1
99	1
100	1
101	1
102	1
103	1
104	1
105	1
106	1
107	1
108	1
109	1
110	1
111	1
112	1
113	1
114	1
115	1
116	1
117	1
118	1
DEPOT_SECTION
	1
	-1
EOF
