NAME : 	all_merged_clusters_chengdu_min80
COMMENT : 	"Generated from Chengdu merged cluster data with count >= 80"
TYPE : 	CVRP
DIMENSION : 	149
EDGE_WEIGHT_TYPE : 	EUC_2D
CAPACITY : 	999999
NODE_COORD_SECTION
1	10407000	3067000
2	10411402	3057949
3	10370156	3060254
4	10396947	3064957
5	10406980	3076851
6	10391301	3063091
7	10448904	3049364
8	10346010	3074705
9	10409344	3058136
10	10424278	3065056
11	10385023	3043744
12	10418354	3071059
13	10404417	3044605
14	10433323	3064450
15	10398844	3062772
16	10422152	3063881
17	10420314	3072605
18	10418551	3068449
19	10390541	3081054
20	10417292	3048429
21	10385923	3082753
22	10366127	3096116
23	10411300	3075220
24	10405476	3045733
25	10413506	3080592
26	10417873	3078292
27	10423542	3064651
28	10389653	3066640
29	10409599	3054107
30	10393802	3061444
31	10391726	3068390
32	10385094	3082035
33	10450925	3035358
34	10393572	3090550
35	10431939	3027693
36	10405078	3047619
37	10404116	3059339
38	10398150	3078517
39	10365474	3092640
40	10416482	3065872
41	10422393	3056642
42	10389985	3083530
43	10432650	3086019
44	10392318	3071697
45	10417658	3071757
46	10416155	3059970
47	10422533	3079309
48	10381403	3063275
49	10406129	3041876
50	10388346	3066592
51	10400748	3059161
52	10386136	3080398
53	10389295	3044748
54	10404686	3042783
55	10424403	3064560
56	10403612	3029726
57	10406967	3069114
58	10412526	3076947
59	10387176	3077939
60	10411847	3075716
61	10439211	3028422
62	10390906	3054339
63	10405603	3084786
64	10366284	3097086
65	10409978	3046714
66	10416599	3071244
67	10420845	3052418
68	10388701	3052852
69	10425548	3053119
70	10349680	3054742
71	10430868	3086528
72	10432353	3064502
73	10405018	3054117
74	10389312	3051373
75	10395772	3066269
76	10355317	3022105
77	10388831	3055638
78	10393811	3061929
79	10416247	3055673
80	10346554	3043807
81	10387394	3041727
82	10418488	3071833
83	10421479	3058311
84	10390260	3065840
85	10407992	3051308
86	10423773	3065298
87	10396936	3036650
88	10419841	3058203
89	10396477	3063702
90	10391271	3082475
91	10412013	3077294
92	10387998	3040436
93	10399102	3073925
94	10397212	3054226
95	10431206	3029867
96	10349853	3056884
97	10416881	3074138
98	10387864	3019817
99	10425476	3085924
100	10396948	3098206
101	10383827	3035929
102	10451286	3042040
103	10407107	3072556
104	10387067	3070211
105	10386121	3044551
106	10410687	3049127
107	10429627	3099386
108	10388478	3038861
109	10420357	3073178
110	10407764	3079474
111	10415029	3061620
112	10406377	3063322
113	10386715	3053506
114	10422405	3067471
115	10417081	3061523
116	10395988	3051740
117	10397767	3068851
118	10356104	3074874
119	10391443	3067578
120	10367853	3102964
121	10409961	3045943
122	10399882	3046712
123	10421427	3065141
124	10432729	3030655
125	10391636	3036929
126	10408361	3045560
127	10395232	3042798
128	10431576	3030289
129	10422614	3052520
130	10448850	3046110
131	10350587	3055912
132	10431870	3086116
133	10424899	3077245
134	10411589	3058433
135	10397195	3046946
136	10452210	3042985
137	10409252	3052420
138	10439190	3029949
139	10360111	3106468
140	10410192	3049760
141	10379696	3064491
142	10421535	3082108
143	10364027	3046601
144	10410622	3058727
145	10410935	3050679
146	10408346	3057860
147	10392114	3070300
148	10414952	3062258
149	10367759	3033880
DEMAND_SECTION
1	0
2	1
3	1
4	1
5	1
6	1
7	1
8	1
9	1
10	1
11	1
12	1
13	1
14	1
15	1
16	1
17	1
18	1
19	1
20	1
21	1
22	1
23	1
24	1
25	1
26	1
27	1
28	1
29	1
30	1
31	1
32	1
33	1
34	1
35	1
36	1
37	1
38	1
39	1
40	1
41	1
42	1
43	1
44	1
45	1
46	1
47	1
48	1
49	1
50	1
51	1
52	1
53	1
54	1
55	1
56	1
57	1
58	1
59	1
60	1
61	1
62	1
63	1
64	1
65	1
66	1
67	1
68	1
69	1
70	1
71	1
72	1
73	1
74	1
75	1
76	1
77	1
78	1
79	1
80	1
81	1
82	1
83	1
84	1
85	1
86	1
87	1
88	1
89	1
90	1
91	1
92	1
93	1
94	1
95	1
96	1
97	1
98	1
99	1
100	1
101	1
102	1
103	1
104	1
105	1
106	1
107	1
108	1
109	1
110	1
111	1
112	1
113	1
114	1
115	1
116	1
117	1
118	1
119	1
120	1
121	1
122	1
123	1
124	1
125	1
126	1
127	1
128	1
129	1
130	1
131	1
132	1
133	1
134	1
135	1
136	1
137	1
138	1
139	1
140	1
141	1
142	1
143	1
144	1
145	1
146	1
147	1
148	1
149	1
DEPOT_SECTION
	1
	-1
EOF
