NAME : 	all_merged_clusters_chengdu_min30
COMMENT : 	"Generated from Chengdu merged cluster data with count >= 30"
TYPE : 	CVRP
DIMENSION : 	281
EDGE_WEIGHT_TYPE : 	EUC_2D
CAPACITY : 	999999
NODE_COORD_SECTION
1	10407000	3067000
2	10411402	3057949
3	10408736	3075940
4	10397377	3080038
5	10370156	3060254
6	10396947	3064957
7	10406980	3076851
8	10391301	3063091
9	10448904	3049364
10	10346010	3074705
11	10409344	3058136
12	10424278	3065056
13	10385023	3043744
14	10418354	3071059
15	10404417	3044605
16	10433323	3064450
17	10398844	3062772
18	10405331	3046621
19	10422152	3063881
20	10420314	3072605
21	10418551	3068449
22	10380251	3045544
23	10390541	3081054
24	10417292	3048429
25	10419686	3059015
26	10385923	3082753
27	10366127	3096116
28	10411300	3075220
29	10405476	3045733
30	10413506	3080592
31	10395690	3072397
32	10417873	3078292
33	10423542	3064651
34	10389653	3066640
35	10409599	3054107
36	10393802	3061444
37	10391726	3068390
38	10385094	3082035
39	10413853	3061080
40	10450925	3035358
41	10393572	3090550
42	10431939	3027693
43	10405078	3047619
44	10403947	3022566
45	10404116	3059339
46	10398150	3078517
47	10422425	3070813
48	10365474	3092640
49	10416482	3065872
50	10422393	3056642
51	10389985	3083530
52	10432650	3086019
53	10392318	3071697
54	10417658	3071757
55	10416155	3059970
56	10422533	3079309
57	10437194	3086434
58	10381403	3063275
59	10406129	3041876
60	10388346	3066592
61	10403766	3065950
62	10400748	3059161
63	10386136	3080398
64	10389295	3044748
65	10404686	3042783
66	10424569	3055375
67	10368161	3061261
68	10400956	3076447
69	10424403	3064560
70	10403612	3029726
71	10412168	3053963
72	10406967	3069114
73	10412526	3076947
74	10387176	3077939
75	10403218	3085838
76	10411847	3075716
77	10399386	3076471
78	10439211	3028422
79	10364756	3095156
80	10390906	3054339
81	10405603	3084786
82	10366284	3097086
83	10409978	3046714
84	10416599	3071244
85	10420845	3052418
86	10388701	3052852
87	10425548	3053119
88	10437805	3031340
89	10349680	3054742
90	10430868	3086528
91	10409033	3074058
92	10419897	3051039
93	10432353	3064502
94	10405018	3054117
95	10389312	3051373
96	10395772	3066269
97	10355317	3022105
98	10385821	3106553
99	10388831	3055638
100	10393811	3061929
101	10416247	3055673
102	10346554	3043807
103	10373779	3051166
104	10387394	3041727
105	10396759	3058607
106	10418488	3071833
107	10421479	3058311
108	10405602	3076324
109	10390260	3065840
110	10407992	3051308
111	10423773	3065298
112	10396936	3036650
113	10435422	3043584
114	10416767	3063653
115	10426889	3057868
116	10419841	3058203
117	10396477	3063702
118	10444963	3048071
119	10381913	3079724
120	10417528	3066437
121	10391271	3082475
122	10412013	3077294
123	10387998	3040436
124	10355983	3054884
125	10370950	3039407
126	10399102	3073925
127	10397212	3054226
128	10431206	3029867
129	10349853	3056884
130	10416881	3074138
131	10387864	3019817
132	10425476	3085924
133	10392489	3094957
134	10396948	3098206
135	10405240	3024605
136	10387647	3049119
137	10383827	3035929
138	10451286	3042040
139	10407107	3072556
140	10387067	3070211
141	10386121	3044551
142	10410687	3049127
143	10429627	3099386
144	10388478	3038861
145	10414057	3082720
146	10420253	3073963
147	10406536	3017961
148	10419103	3079088
149	10388678	3082036
150	10420357	3073178
151	10407764	3079474
152	10415029	3061620
153	10406377	3063322
154	10364344	3047007
155	10410658	3074054
156	10386715	3053506
157	10422405	3067471
158	10385979	3030141
159	10417081	3061523
160	10395988	3051740
161	10405869	3064936
162	10397767	3068851
163	10365314	3092032
164	10395239	3079583
165	10356104	3074874
166	10442860	3114985
167	10391443	3067578
168	10367853	3102964
169	10409961	3045943
170	10399882	3046712
171	10400760	3055416
172	10421427	3065141
173	10388028	3060426
174	10378192	3067566
175	10432729	3030655
176	10419502	3052833
177	10391636	3036929
178	10408361	3045560
179	10408513	3068341
180	10395232	3042798
181	10431576	3030289
182	10391186	3079862
183	10403695	3014813
184	10428696	3069689
185	10422614	3052520
186	10448850	3046110
187	10450150	3047397
188	10350587	3055912
189	10440176	3099733
190	10449247	3032304
191	10409855	3088510
192	10436267	3065848
193	10347906	3042788
194	10369674	3039762
195	10412089	3050159
196	10431870	3086116
197	10411532	3041767
198	10424899	3077245
199	10405074	3066438
200	10415278	3078175
201	10411589	3058433
202	10397195	3046946
203	10452210	3042985
204	10436158	3043493
205	10368192	3059669
206	10409252	3052420
207	10439190	3029949
208	10388786	3066108
209	10360111	3106468
210	10410192	3049760
211	10442356	3047417
212	10364259	3094284
213	10348978	3018462
214	10379696	3064491
215	10397341	3062372
216	10421535	3082108
217	10364027	3046601
218	10372487	3057826
219	10400081	3076279
220	10399525	3061272
221	10410622	3058727
222	10394907	3051564
223	10410935	3050679
224	10345239	3037453
225	10446905	3084808
226	10405101	3025981
227	10400185	3052060
228	10408346	3057860
229	10392114	3070300
230	10421892	3065522
231	10371381	3052658
232	10396309	3044811
233	10414952	3062258
234	10400388	3060636
235	10418610	3055278
236	10396646	3043573
237	10395872	3064849
238	10415784	3069230
239	10367759	3033880
240	10419021	3066238
241	10410896	3046408
242	10403381	3046597
243	10400184	3088452
244	10413070	3067061
245	10417524	3078794
246	10401103	3051768
247	10414915	3065964
248	10405618	3042771
249	10410467	3051305
250	10406573	3044746
251	10449877	3042792
252	10415163	3077522
253	10379240	3018720
254	10392935	3069947
255	10407336	3071789
256	10390820	3066072
257	10401069	3051150
258	10417175	3065963
259	10416914	3053214
260	10347469	3043156
261	10371801	3060994
262	10439444	3035008
263	10415556	3058058
264	10406726	3032961
265	10430759	3084524
266	10390205	3083444
267	10414913	3083927
268	10400339	3073484
269	10423187	3063961
270	10443852	3035617
271	10395995	3016540
272	10447367	3048626
273	10387632	3050079
274	10345225	3047489
275	10399780	3075742
276	10397290	3066370
277	10379911	3116711
278	10414089	3064573
279	10407559	3023885
280	10398375	3057262
281	10397671	3065300
DEMAND_SECTION
1	0
2	1
3	1
4	1
5	1
6	1
7	1
8	1
9	1
10	1
11	1
12	1
13	1
14	1
15	1
16	1
17	1
18	1
19	1
20	1
21	1
22	1
23	1
24	1
25	1
26	1
27	1
28	1
29	1
30	1
31	1
32	1
33	1
34	1
35	1
36	1
37	1
38	1
39	1
40	1
41	1
42	1
43	1
44	1
45	1
46	1
47	1
48	1
49	1
50	1
51	1
52	1
53	1
54	1
55	1
56	1
57	1
58	1
59	1
60	1
61	1
62	1
63	1
64	1
65	1
66	1
67	1
68	1
69	1
70	1
71	1
72	1
73	1
74	1
75	1
76	1
77	1
78	1
79	1
80	1
81	1
82	1
83	1
84	1
85	1
86	1
87	1
88	1
89	1
90	1
91	1
92	1
93	1
94	1
95	1
96	1
97	1
98	1
99	1
100	1
101	1
102	1
103	1
104	1
105	1
106	1
107	1
108	1
109	1
110	1
111	1
112	1
113	1
114	1
115	1
116	1
117	1
118	1
119	1
120	1
121	1
122	1
123	1
124	1
125	1
126	1
127	1
128	1
129	1
130	1
131	1
132	1
133	1
134	1
135	1
136	1
137	1
138	1
139	1
140	1
141	1
142	1
143	1
144	1
145	1
146	1
147	1
148	1
149	1
150	1
151	1
152	1
153	1
154	1
155	1
156	1
157	1
158	1
159	1
160	1
161	1
162	1
163	1
164	1
165	1
166	1
167	1
168	1
169	1
170	1
171	1
172	1
173	1
174	1
175	1
176	1
177	1
178	1
179	1
180	1
181	1
182	1
183	1
184	1
185	1
186	1
187	1
188	1
189	1
190	1
191	1
192	1
193	1
194	1
195	1
196	1
197	1
198	1
199	1
200	1
201	1
202	1
203	1
204	1
205	1
206	1
207	1
208	1
209	1
210	1
211	1
212	1
213	1
214	1
215	1
216	1
217	1
218	1
219	1
220	1
221	1
222	1
223	1
224	1
225	1
226	1
227	1
228	1
229	1
230	1
231	1
232	1
233	1
234	1
235	1
236	1
237	1
238	1
239	1
240	1
241	1
242	1
243	1
244	1
245	1
246	1
247	1
248	1
249	1
250	1
251	1
252	1
253	1
254	1
255	1
256	1
257	1
258	1
259	1
260	1
261	1
262	1
263	1
264	1
265	1
266	1
267	1
268	1
269	1
270	1
271	1
272	1
273	1
274	1
275	1
276	1
277	1
278	1
279	1
280	1
281	1
DEPOT_SECTION
	1
	-1
EOF
