NAME : 	all_merged_clusters_chengdu_min20
COMMENT : 	"Generated from Chengdu merged cluster data with count >= 20"
TYPE : 	CVRP
DIMENSION : 	348
EDGE_WEIGHT_TYPE : 	EUC_2D
CAPACITY : 	999999
NODE_COORD_SECTION
1	10407000	3067000
2	10411402	3057949
3	10408736	3075940
4	10397377	3080038
5	10370156	3060254
6	10396947	3064957
7	10406980	3076851
8	10391301	3063091
9	10448904	3049364
10	10346010	3074705
11	10409344	3058136
12	10424278	3065056
13	10385023	3043744
14	10418354	3071059
15	10404417	3044605
16	10433323	3064450
17	10398844	3062772
18	10405331	3046621
19	10422152	3063881
20	10420314	3072605
21	10418551	3068449
22	10380251	3045544
23	10390541	3081054
24	10417292	3048429
25	10419686	3059015
26	10385923	3082753
27	10366127	3096116
28	10411300	3075220
29	10405476	3045733
30	10413506	3080592
31	10395690	3072397
32	10417873	3078292
33	10423542	3064651
34	10389653	3066640
35	10409599	3054107
36	10393802	3061444
37	10391726	3068390
38	10385094	3082035
39	10413853	3061080
40	10450925	3035358
41	10393572	3090550
42	10431939	3027693
43	10405078	3047619
44	10403947	3022566
45	10404116	3059339
46	10398150	3078517
47	10422425	3070813
48	10365474	3092640
49	10416482	3065872
50	10422393	3056642
51	10389985	3083530
52	10432650	3086019
53	10392318	3071697
54	10417658	3071757
55	10416155	3059970
56	10422533	3079309
57	10437194	3086434
58	10381403	3063275
59	10406129	3041876
60	10388346	3066592
61	10403766	3065950
62	10400748	3059161
63	10386136	3080398
64	10389295	3044748
65	10404686	3042783
66	10424569	3055375
67	10368161	3061261
68	10400956	3076447
69	10434409	3082734
70	10424403	3064560
71	10403612	3029726
72	10412168	3053963
73	10406967	3069114
74	10412526	3076947
75	10387176	3077939
76	10403218	3085838
77	10411847	3075716
78	10399386	3076471
79	10439211	3028422
80	10364756	3095156
81	10374154	3069459
82	10390906	3054339
83	10405603	3084786
84	10366284	3097086
85	10409978	3046714
86	10416599	3071244
87	10420845	3052418
88	10388701	3052852
89	10425548	3053119
90	10437805	3031340
91	10349680	3054742
92	10430868	3086528
93	10409033	3074058
94	10419897	3051039
95	10432353	3064502
96	10405018	3054117
97	10394225	3084768
98	10389312	3051373
99	10395772	3066269
100	10355317	3022105
101	10385821	3106553
102	10388831	3055638
103	10393811	3061929
104	10416247	3055673
105	10346554	3043807
106	10373779	3051166
107	10387394	3041727
108	10396759	3058607
109	10418488	3071833
110	10421479	3058311
111	10405602	3076324
112	10390260	3065840
113	10407992	3051308
114	10423773	3065298
115	10396936	3036650
116	10435422	3043584
117	10416767	3063653
118	10426889	3057868
119	10419841	3058203
120	10396477	3063702
121	10444963	3048071
122	10381913	3079724
123	10407888	3036543
124	10417528	3066437
125	10391271	3082475
126	10412013	3077294
127	10387998	3040436
128	10355983	3054884
129	10370950	3039407
130	10399102	3073925
131	10397212	3054226
132	10431206	3029867
133	10349853	3056884
134	10395928	3094018
135	10416881	3074138
136	10387864	3019817
137	10425476	3085924
138	10392489	3094957
139	10396948	3098206
140	10405240	3024605
141	10387647	3049119
142	10383827	3035929
143	10451286	3042040
144	10436945	3028916
145	10407107	3072556
146	10387067	3070211
147	10386121	3044551
148	10410687	3049127
149	10429627	3099386
150	10388478	3038861
151	10414057	3082720
152	10420253	3073963
153	10406536	3017961
154	10419103	3079088
155	10388678	3082036
156	10420357	3073178
157	10407764	3079474
158	10415029	3061620
159	10406377	3063322
160	10364344	3047007
161	10410658	3074054
162	10386715	3053506
163	10422405	3067471
164	10385979	3030141
165	10417081	3061523
166	10395988	3051740
167	10405869	3064936
168	10397767	3068851
169	10365314	3092032
170	10388951	3038382
171	10395239	3079583
172	10356104	3074874
173	10442860	3114985
174	10391443	3067578
175	10367853	3102964
176	10409961	3045943
177	10399882	3046712
178	10400760	3055416
179	10421427	3065141
180	10388028	3060426
181	10378192	3067566
182	10410879	3076849
183	10432729	3030655
184	10351726	3075016
185	10419502	3052833
186	10391636	3036929
187	10408361	3045560
188	10408513	3068341
189	10395232	3042798
190	10431576	3030289
191	10391186	3079862
192	10403695	3014813
193	10431245	3087462
194	10419316	3073997
195	10428696	3069689
196	10422614	3052520
197	10448850	3046110
198	10450150	3047397
199	10350587	3055912
200	10440176	3099733
201	10402254	3052301
202	10449247	3032304
203	10409855	3088510
204	10436267	3065848
205	10391261	3097888
206	10397346	3057910
207	10347906	3042788
208	10369674	3039762
209	10387517	3048019
210	10412089	3050159
211	10431870	3086116
212	10421102	3060814
213	10411532	3041767
214	10424899	3077245
215	10405074	3066438
216	10415278	3078175
217	10391706	3039773
218	10410367	3053215
219	10411589	3058433
220	10397195	3046946
221	10452210	3042985
222	10406050	3124542
223	10436158	3043493
224	10368192	3059669
225	10415389	3072716
226	10409252	3052420
227	10439190	3029949
228	10388786	3066108
229	10360111	3106468
230	10410192	3049760
231	10399363	3074654
232	10442356	3047417
233	10364259	3094284
234	10452211	3066280
235	10348978	3018462
236	10379696	3064491
237	10397341	3062372
238	10421535	3082108
239	10364027	3046601
240	10372487	3057826
241	10400081	3076279
242	10399525	3061272
243	10410622	3058727
244	10385671	3044218
245	10394907	3051564
246	10410935	3050679
247	10407870	3068429
248	10416079	3064345
249	10350437	3057282
250	10345239	3037453
251	10446905	3084808
252	10405101	3025981
253	10372738	3055917
254	10400185	3052060
255	10408716	3074838
256	10408346	3057860
257	10392114	3070300
258	10421892	3065522
259	10371381	3052658
260	10396309	3044811
261	10414341	3046578
262	10414952	3062258
263	10400388	3060636
264	10418610	3055278
265	10396646	3043573
266	10395872	3064849
267	10415784	3069230
268	10367759	3033880
269	10419021	3066238
270	10396212	3093346
271	10410896	3046408
272	10395245	3099939
273	10403381	3046597
274	10400184	3088452
275	10413070	3067061
276	10396000	3015202
277	10417524	3078794
278	10401103	3051768
279	10414915	3065964
280	10405618	3042771
281	10402769	3048091
282	10410467	3051305
283	10406573	3044746
284	10449877	3042792
285	10415163	3077522
286	10379240	3018720
287	10399885	3066949
288	10405462	3065408
289	10397374	3103206
290	10392935	3069947
291	10407336	3071789
292	10390820	3066072
293	10417459	3072757
294	10401069	3051150
295	10417175	3065963
296	10416914	3053214
297	10379491	3044118
298	10347469	3043156
299	10371801	3060994
300	10381243	3057159
301	10439444	3035008
302	10401177	3046396
303	10415556	3058058
304	10410050	3075097
305	10405832	3038606
306	10406726	3032961
307	10430759	3084524
308	10431554	3060506
309	10392088	3054080
310	10396434	3047830
311	10423185	3079346
312	10390205	3083444
313	10414913	3083927
314	10400339	3073484
315	10423187	3063961
316	10391750	3074275
317	10424974	3058037
318	10368667	3062921
319	10443852	3035617
320	10395995	3016540
321	10447367	3048626
322	10422151	3069591
323	10355276	3053069
324	10387632	3050079
325	10353597	3074258
326	10345225	3047489
327	10399780	3075742
328	10416431	3038361
329	10362836	3072739
330	10420049	3068403
331	10389903	3061571
332	10407917	3081818
333	10397290	3066370
334	10432395	3034314
335	10435822	3066088
336	10379911	3116711
337	10414089	3064573
338	10390494	3067634
339	10397710	3063934
340	10407559	3023885
341	10382332	3061026
342	10394006	3099956
343	10399145	3043670
344	10407286	3069561
345	10447822	3048960
346	10398375	3057262
347	10397671	3065300
348	10411539	3037847
DEMAND_SECTION
1	0
2	1
3	1
4	1
5	1
6	1
7	1
8	1
9	1
10	1
11	1
12	1
13	1
14	1
15	1
16	1
17	1
18	1
19	1
20	1
21	1
22	1
23	1
24	1
25	1
26	1
27	1
28	1
29	1
30	1
31	1
32	1
33	1
34	1
35	1
36	1
37	1
38	1
39	1
40	1
41	1
42	1
43	1
44	1
45	1
46	1
47	1
48	1
49	1
50	1
51	1
52	1
53	1
54	1
55	1
56	1
57	1
58	1
59	1
60	1
61	1
62	1
63	1
64	1
65	1
66	1
67	1
68	1
69	1
70	1
71	1
72	1
73	1
74	1
75	1
76	1
77	1
78	1
79	1
80	1
81	1
82	1
83	1
84	1
85	1
86	1
87	1
88	1
89	1
90	1
91	1
92	1
93	1
94	1
95	1
96	1
97	1
98	1
99	1
100	1
101	1
102	1
103	1
104	1
105	1
106	1
107	1
108	1
109	1
110	1
111	1
112	1
113	1
114	1
115	1
116	1
117	1
118	1
119	1
120	1
121	1
122	1
123	1
124	1
125	1
126	1
127	1
128	1
129	1
130	1
131	1
132	1
133	1
134	1
135	1
136	1
137	1
138	1
139	1
140	1
141	1
142	1
143	1
144	1
145	1
146	1
147	1
148	1
149	1
150	1
151	1
152	1
153	1
154	1
155	1
156	1
157	1
158	1
159	1
160	1
161	1
162	1
163	1
164	1
165	1
166	1
167	1
168	1
169	1
170	1
171	1
172	1
173	1
174	1
175	1
176	1
177	1
178	1
179	1
180	1
181	1
182	1
183	1
184	1
185	1
186	1
187	1
188	1
189	1
190	1
191	1
192	1
193	1
194	1
195	1
196	1
197	1
198	1
199	1
200	1
201	1
202	1
203	1
204	1
205	1
206	1
207	1
208	1
209	1
210	1
211	1
212	1
213	1
214	1
215	1
216	1
217	1
218	1
219	1
220	1
221	1
222	1
223	1
224	1
225	1
226	1
227	1
228	1
229	1
230	1
231	1
232	1
233	1
234	1
235	1
236	1
237	1
238	1
239	1
240	1
241	1
242	1
243	1
244	1
245	1
246	1
247	1
248	1
249	1
250	1
251	1
252	1
253	1
254	1
255	1
256	1
257	1
258	1
259	1
260	1
261	1
262	1
263	1
264	1
265	1
266	1
267	1
268	1
269	1
270	1
271	1
272	1
273	1
274	1
275	1
276	1
277	1
278	1
279	1
280	1
281	1
282	1
283	1
284	1
285	1
286	1
287	1
288	1
289	1
290	1
291	1
292	1
293	1
294	1
295	1
296	1
297	1
298	1
299	1
300	1
301	1
302	1
303	1
304	1
305	1
306	1
307	1
308	1
309	1
310	1
311	1
312	1
313	1
314	1
315	1
316	1
317	1
318	1
319	1
320	1
321	1
322	1
323	1
324	1
325	1
326	1
327	1
328	1
329	1
330	1
331	1
332	1
333	1
334	1
335	1
336	1
337	1
338	1
339	1
340	1
341	1
342	1
343	1
344	1
345	1
346	1
347	1
348	1
DEPOT_SECTION
	1
	-1
EOF
