NAME : 	all_merged_clusters_chengdu_min50
COMMENT : 	"Generated from Chengdu merged cluster data with count >= 50"
TYPE : 	CVRP
DIMENSION : 	211
EDGE_WEIGHT_TYPE : 	EUC_2D
CAPACITY : 	999999
NODE_COORD_SECTION
1	10407000	3067000
2	10411402	3057949
3	10370156	3060254
4	10396947	3064957
5	10406980	3076851
6	10391301	3063091
7	10448904	3049364
8	10346010	3074705
9	10409344	3058136
10	10424278	3065056
11	10385023	3043744
12	10418354	3071059
13	10404417	3044605
14	10433323	3064450
15	10398844	3062772
16	10405331	3046621
17	10422152	3063881
18	10420314	3072605
19	10418551	3068449
20	10380251	3045544
21	10390541	3081054
22	10417292	3048429
23	10385923	3082753
24	10366127	3096116
25	10411300	3075220
26	10405476	3045733
27	10413506	3080592
28	10417873	3078292
29	10423542	3064651
30	10389653	3066640
31	10409599	3054107
32	10393802	3061444
33	10391726	3068390
34	10385094	3082035
35	10413853	3061080
36	10450925	3035358
37	10393572	3090550
38	10431939	3027693
39	10405078	3047619
40	10403947	3022566
41	10404116	3059339
42	10398150	3078517
43	10422425	3070813
44	10365474	3092640
45	10416482	3065872
46	10422393	3056642
47	10389985	3083530
48	10432650	3086019
49	10392318	3071697
50	10417658	3071757
51	10416155	3059970
52	10422533	3079309
53	10437194	3086434
54	10381403	3063275
55	10406129	3041876
56	10388346	3066592
57	10400748	3059161
58	10386136	3080398
59	10389295	3044748
60	10404686	3042783
61	10424403	3064560
62	10403612	3029726
63	10406967	3069114
64	10412526	3076947
65	10387176	3077939
66	10411847	3075716
67	10399386	3076471
68	10439211	3028422
69	10364756	3095156
70	10390906	3054339
71	10405603	3084786
72	10366284	3097086
73	10409978	3046714
74	10416599	3071244
75	10420845	3052418
76	10388701	3052852
77	10425548	3053119
78	10349680	3054742
79	10430868	3086528
80	10409033	3074058
81	10419897	3051039
82	10432353	3064502
83	10405018	3054117
84	10389312	3051373
85	10395772	3066269
86	10355317	3022105
87	10388831	3055638
88	10393811	3061929
89	10416247	3055673
90	10346554	3043807
91	10387394	3041727
92	10396759	3058607
93	10418488	3071833
94	10421479	3058311
95	10405602	3076324
96	10390260	3065840
97	10407992	3051308
98	10423773	3065298
99	10396936	3036650
100	10435422	3043584
101	10426889	3057868
102	10419841	3058203
103	10396477	3063702
104	10444963	3048071
105	10381913	3079724
106	10417528	3066437
107	10391271	3082475
108	10412013	3077294
109	10387998	3040436
110	10355983	3054884
111	10370950	3039407
112	10399102	3073925
113	10397212	3054226
114	10431206	3029867
115	10349853	3056884
116	10416881	3074138
117	10387864	3019817
118	10425476	3085924
119	10392489	3094957
120	10396948	3098206
121	10405240	3024605
122	10387647	3049119
123	10383827	3035929
124	10451286	3042040
125	10407107	3072556
126	10387067	3070211
127	10386121	3044551
128	10410687	3049127
129	10429627	3099386
130	10388478	3038861
131	10414057	3082720
132	10420253	3073963
133	10406536	3017961
134	10419103	3079088
135	10420357	3073178
136	10407764	3079474
137	10415029	3061620
138	10406377	3063322
139	10410658	3074054
140	10386715	3053506
141	10422405	3067471
142	10417081	3061523
143	10395988	3051740
144	10397767	3068851
145	10365314	3092032
146	10395239	3079583
147	10356104	3074874
148	10391443	3067578
149	10367853	3102964
150	10409961	3045943
151	10399882	3046712
152	10400760	3055416
153	10421427	3065141
154	10432729	3030655
155	10419502	3052833
156	10391636	3036929
157	10408361	3045560
158	10408513	3068341
159	10395232	3042798
160	10431576	3030289
161	10391186	3079862
162	10403695	3014813
163	10422614	3052520
164	10448850	3046110
165	10450150	3047397
166	10350587	3055912
167	10440176	3099733
168	10449247	3032304
169	10412089	3050159
170	10431870	3086116
171	10411532	3041767
172	10424899	3077245
173	10415278	3078175
174	10411589	3058433
175	10397195	3046946
176	10452210	3042985
177	10409252	3052420
178	10439190	3029949
179	10388786	3066108
180	10360111	3106468
181	10410192	3049760
182	10364259	3094284
183	10379696	3064491
184	10397341	3062372
185	10421535	3082108
186	10364027	3046601
187	10372487	3057826
188	10410622	3058727
189	10410935	3050679
190	10446905	3084808
191	10400185	3052060
192	10408346	3057860
193	10392114	3070300
194	10371381	3052658
195	10414952	3062258
196	10418610	3055278
197	10395872	3064849
198	10367759	3033880
199	10419021	3066238
200	10413070	3067061
201	10417524	3078794
202	10410467	3051305
203	10406573	3044746
204	10417175	3065963
205	10371801	3060994
206	10439444	3035008
207	10406726	3032961
208	10430759	3084524
209	10390205	3083444
210	10379911	3116711
211	10407559	3023885
DEMAND_SECTION
1	0
2	1
3	1
4	1
5	1
6	1
7	1
8	1
9	1
10	1
11	1
12	1
13	1
14	1
15	1
16	1
17	1
18	1
19	1
20	1
21	1
22	1
23	1
24	1
25	1
26	1
27	1
28	1
29	1
30	1
31	1
32	1
33	1
34	1
35	1
36	1
37	1
38	1
39	1
40	1
41	1
42	1
43	1
44	1
45	1
46	1
47	1
48	1
49	1
50	1
51	1
52	1
53	1
54	1
55	1
56	1
57	1
58	1
59	1
60	1
61	1
62	1
63	1
64	1
65	1
66	1
67	1
68	1
69	1
70	1
71	1
72	1
73	1
74	1
75	1
76	1
77	1
78	1
79	1
80	1
81	1
82	1
83	1
84	1
85	1
86	1
87	1
88	1
89	1
90	1
91	1
92	1
93	1
94	1
95	1
96	1
97	1
98	1
99	1
100	1
101	1
102	1
103	1
104	1
105	1
106	1
107	1
108	1
109	1
110	1
111	1
112	1
113	1
114	1
115	1
116	1
117	1
118	1
119	1
120	1
121	1
122	1
123	1
124	1
125	1
126	1
127	1
128	1
129	1
130	1
131	1
132	1
133	1
134	1
135	1
136	1
137	1
138	1
139	1
140	1
141	1
142	1
143	1
144	1
145	1
146	1
147	1
148	1
149	1
150	1
151	1
152	1
153	1
154	1
155	1
156	1
157	1
158	1
159	1
160	1
161	1
162	1
163	1
164	1
165	1
166	1
167	1
168	1
169	1
170	1
171	1
172	1
173	1
174	1
175	1
176	1
177	1
178	1
179	1
180	1
181	1
182	1
183	1
184	1
185	1
186	1
187	1
188	1
189	1
190	1
191	1
192	1
193	1
194	1
195	1
196	1
197	1
198	1
199	1
200	1
201	1
202	1
203	1
204	1
205	1
206	1
207	1
208	1
209	1
210	1
211	1
DEPOT_SECTION
	1
	-1
EOF
