NAME : 	all_merged_clusters_chengdu_min10
COMMENT : 	"Generated from Chengdu merged cluster data with count >= 10"
TYPE : 	CVRP
DIMENSION : 	459
EDGE_WEIGHT_TYPE : 	EUC_2D
CAPACITY : 	999999
NODE_COORD_SECTION
1	10407000	3067000
2	10411402	3057949
3	10408736	3075940
4	10397377	3080038
5	10370156	3060254
6	10396947	3064957
7	10406980	3076851
8	10391301	3063091
9	10448904	3049364
10	10346010	3074705
11	10409344	3058136
12	10424278	3065056
13	10385023	3043744
14	10418354	3071059
15	10404417	3044605
16	10433323	3064450
17	10398844	3062772
18	10405331	3046621
19	10422152	3063881
20	10420314	3072605
21	10418551	3068449
22	10380251	3045544
23	10390541	3081054
24	10417292	3048429
25	10419686	3059015
26	10385923	3082753
27	10366127	3096116
28	10416609	3062843
29	10411300	3075220
30	10405476	3045733
31	10413506	3080592
32	10395690	3072397
33	10417873	3078292
34	10423542	3064651
35	10371904	3059364
36	10389653	3066640
37	10409599	3054107
38	10393802	3061444
39	10391726	3068390
40	10385094	3082035
41	10413853	3061080
42	10450925	3035358
43	10393572	3090550
44	10431939	3027693
45	10405078	3047619
46	10403947	3022566
47	10404116	3059339
48	10398150	3078517
49	10422425	3070813
50	10365474	3092640
51	10416482	3065872
52	10422393	3056642
53	10389985	3083530
54	10432650	3086019
55	10392318	3071697
56	10417658	3071757
57	10416155	3059970
58	10422533	3079309
59	10429759	3103500
60	10437194	3086434
61	10381403	3063275
62	10406129	3041876
63	10388346	3066592
64	10403766	3065950
65	10400748	3059161
66	10386136	3080398
67	10389295	3044748
68	10388574	3102831
69	10404686	3042783
70	10424569	3055375
71	10368161	3061261
72	10400956	3076447
73	10434409	3082734
74	10424403	3064560
75	10448793	3042730
76	10403612	3029726
77	10412168	3053963
78	10406967	3069114
79	10412526	3076947
80	10387176	3077939
81	10403218	3085838
82	10411847	3075716
83	10399386	3076471
84	10439211	3028422
85	10364756	3095156
86	10374154	3069459
87	10390906	3054339
88	10405603	3084786
89	10366284	3097086
90	10409978	3046714
91	10416599	3071244
92	10420845	3052418
93	10388701	3052852
94	10425548	3053119
95	10437805	3031340
96	10349680	3054742
97	10430868	3086528
98	10409033	3074058
99	10419897	3051039
100	10432353	3064502
101	10405018	3054117
102	10394225	3084768
103	10389312	3051373
104	10395772	3066269
105	10355317	3022105
106	10385821	3106553
107	10388831	3055638
108	10393811	3061929
109	10416247	3055673
110	10346554	3043807
111	10373779	3051166
112	10387394	3041727
113	10396759	3058607
114	10418488	3071833
115	10421479	3058311
116	10405602	3076324
117	10390260	3065840
118	10407992	3051308
119	10403714	3032875
120	10423773	3065298
121	10396936	3036650
122	10435422	3043584
123	10416767	3063653
124	10426889	3057868
125	10419841	3058203
126	10396477	3063702
127	10444963	3048071
128	10381913	3079724
129	10407888	3036543
130	10417528	3066437
131	10391271	3082475
132	10412013	3077294
133	10387998	3040436
134	10355983	3054884
135	10370950	3039407
136	10399102	3073925
137	10397212	3054226
138	10431206	3029867
139	10402749	3045065
140	10349853	3056884
141	10395928	3094018
142	10416881	3074138
143	10387864	3019817
144	10425476	3085924
145	10392489	3094957
146	10396948	3098206
147	10405240	3024605
148	10387647	3049119
149	10383827	3035929
150	10451286	3042040
151	10436945	3028916
152	10407107	3072556
153	10387067	3070211
154	10386121	3044551
155	10410687	3049127
156	10429627	3099386
157	10388478	3038861
158	10414057	3082720
159	10420253	3073963
160	10406536	3017961
161	10419103	3079088
162	10388678	3082036
163	10420357	3073178
164	10407764	3079474
165	10415029	3061620
166	10406377	3063322
167	10364344	3047007
168	10410658	3074054
169	10386715	3053506
170	10392952	3094169
171	10422405	3067471
172	10385979	3030141
173	10417081	3061523
174	10395988	3051740
175	10405869	3064936
176	10397767	3068851
177	10365314	3092032
178	10388951	3038382
179	10395239	3079583
180	10356104	3074874
181	10442860	3114985
182	10391443	3067578
183	10367853	3102964
184	10409961	3045943
185	10399882	3046712
186	10400760	3055416
187	10421427	3065141
188	10388028	3060426
189	10378192	3067566
190	10410879	3076849
191	10432729	3030655
192	10351726	3075016
193	10419502	3052833
194	10391636	3036929
195	10408361	3045560
196	10408513	3068341
197	10395232	3042798
198	10431576	3030289
199	10444623	3047302
200	10391186	3079862
201	10395155	3101271
202	10403695	3014813
203	10431245	3087462
204	10419316	3073997
205	10428696	3069689
206	10447261	3049353
207	10422614	3052520
208	10448850	3046110
209	10450150	3047397
210	10436301	3106783
211	10350587	3055912
212	10408341	3071990
213	10390818	3097278
214	10440176	3099733
215	10402254	3052301
216	10434223	3115027
217	10403817	3035855
218	10449247	3032304
219	10409855	3088510
220	10436659	3030458
221	10436267	3065848
222	10391261	3097888
223	10397346	3057910
224	10347906	3042788
225	10369674	3039762
226	10387517	3048019
227	10412089	3050159
228	10431870	3086116
229	10386219	3071079
230	10400552	3051495
231	10421102	3060814
232	10411532	3041767
233	10424899	3077245
234	10400805	3071887
235	10405074	3066438
236	10415278	3078175
237	10391706	3039773
238	10439753	3082410
239	10410367	3053215
240	10411589	3058433
241	10397195	3046946
242	10398268	3045364
243	10452210	3042985
244	10406050	3124542
245	10436158	3043493
246	10344969	3046680
247	10435359	3099590
248	10368192	3059669
249	10415389	3072716
250	10409252	3052420
251	10439190	3029949
252	10388786	3066108
253	10360111	3106468
254	10426785	3065039
255	10410192	3049760
256	10399363	3074654
257	10442356	3047417
258	10364259	3094284
259	10452211	3066280
260	10395953	3043824
261	10417998	3061949
262	10348978	3018462
263	10429350	3085047
264	10379696	3064491
265	10397341	3062372
266	10421535	3082108
267	10364027	3046601
268	10372487	3057826
269	10400081	3076279
270	10379071	3066683
271	10399525	3061272
272	10410622	3058727
273	10397813	3020028
274	10385671	3044218
275	10353330	3069422
276	10394907	3051564
277	10410935	3050679
278	10407870	3068429
279	10416079	3064345
280	10350437	3057282
281	10345239	3037453
282	10446905	3084808
283	10400182	3012797
284	10405101	3025981
285	10372738	3055917
286	10400185	3052060
287	10408716	3074838
288	10397077	3098906
289	10408346	3057860
290	10392114	3070300
291	10421892	3065522
292	10391905	3023131
293	10371381	3052658
294	10396309	3044811
295	10414341	3046578
296	10414952	3062258
297	10423702	3072408
298	10400388	3060636
299	10387508	3083052
300	10436603	3085726
301	10389126	3077758
302	10418610	3055278
303	10396646	3043573
304	10395976	3036357
305	10406306	3043818
306	10395872	3064849
307	10415784	3069230
308	10367759	3033880
309	10393694	3078182
310	10399831	3025293
311	10422356	3088514
312	10349897	3054242
313	10419021	3066238
314	10396212	3093346
315	10410896	3046408
316	10395245	3099939
317	10403381	3046597
318	10400184	3088452
319	10413070	3067061
320	10396000	3015202
321	10417524	3078794
322	10401103	3051768
323	10400217	3059077
324	10414915	3065964
325	10405618	3042771
326	10394356	3033670
327	10402769	3048091
328	10410467	3051305
329	10406573	3044746
330	10449877	3042792
331	10447680	3035486
332	10438683	3030179
333	10415163	3077522
334	10397393	3042919
335	10410801	3042053
336	10379240	3018720
337	10399885	3066949
338	10405462	3065408
339	10397374	3103206
340	10392935	3069947
341	10407336	3071789
342	10390820	3066072
343	10408753	3054825
344	10402235	3050099
345	10417459	3072757
346	10401069	3051150
347	10417175	3065963
348	10416914	3053214
349	10379491	3044118
350	10392205	3068646
351	10368665	3083717
352	10347469	3043156
353	10371801	3060994
354	10404025	3058231
355	10381243	3057159
356	10439444	3035008
357	10401177	3046396
358	10437888	3029234
359	10429170	3058839
360	10415556	3058058
361	10410050	3075097
362	10405832	3038606
363	10406726	3032961
364	10430759	3084524
365	10431554	3060506
366	10383286	3054980
367	10392088	3054080
368	10396434	3047830
369	10423185	3079346
370	10408515	3023849
371	10390205	3083444
372	10414913	3083927
373	10414320	3058164
374	10400339	3073484
375	10423187	3063961
376	10391750	3074275
377	10406793	3066272
378	10424974	3058037
379	10368667	3062921
380	10443852	3035617
381	10450096	3048348
382	10395995	3016540
383	10447367	3048626
384	10386284	3055640
385	10422151	3069591
386	10372110	3110218
387	10355276	3053069
388	10387632	3050079
389	10353597	3074258
390	10345225	3047489
391	10420157	3067857
392	10418847	3071772
393	10399780	3075742
394	10416431	3038361
395	10362836	3072739
396	10387718	3056253
397	10398931	3059635
398	10404183	3024886
399	10414794	3040292
400	10407659	3037520
401	10420049	3068403
402	10389903	3061571
403	10407917	3081818
404	10397290	3066370
405	10429166	3087743
406	10432395	3034314
407	10435822	3066088
408	10418889	3069724
409	10379911	3116711
410	10414089	3064573
411	10390494	3067634
412	10397710	3063934
413	10398559	3072335
414	10411192	3051199
415	10407559	3023885
416	10419163	3082031
417	10397405	3073762
418	10379276	3046101
419	10382332	3061026
420	10450053	3033898
421	10398592	3021767
422	10449888	3049075
423	10411203	3107591
424	10394006	3099956
425	10403748	3073209
426	10421718	3057198
427	10438785	3076177
428	10399145	3043670
429	10404245	3019924
430	10407286	3069561
431	10447822	3048960
432	10398375	3057262
433	10394869	3067834
434	10399704	3090794
435	10346482	3045267
436	10397671	3065300
437	10394357	3050768
438	10406375	3060973
439	10388127	3108757
440	10411539	3037847
441	10418818	3051461
442	10409747	3058518
443	10374940	3053038
444	10410576	3058048
445	10376020	3066530
446	10385653	3078559
447	10406115	3038957
448	10425509	3057912
449	10354073	3105019
450	10396454	3061534
451	10396528	3031017
452	10394359	3049911
453	10450552	3050670
454	10419596	3085916
455	10409107	3055979
456	10389018	3047889
457	10389152	3041002
458	10386029	3083707
459	10423525	3086065
DEMAND_SECTION
1	0
2	1
3	1
4	1
5	1
6	1
7	1
8	1
9	1
10	1
11	1
12	1
13	1
14	1
15	1
16	1
17	1
18	1
19	1
20	1
21	1
22	1
23	1
24	1
25	1
26	1
27	1
28	1
29	1
30	1
31	1
32	1
33	1
34	1
35	1
36	1
37	1
38	1
39	1
40	1
41	1
42	1
43	1
44	1
45	1
46	1
47	1
48	1
49	1
50	1
51	1
52	1
53	1
54	1
55	1
56	1
57	1
58	1
59	1
60	1
61	1
62	1
63	1
64	1
65	1
66	1
67	1
68	1
69	1
70	1
71	1
72	1
73	1
74	1
75	1
76	1
77	1
78	1
79	1
80	1
81	1
82	1
83	1
84	1
85	1
86	1
87	1
88	1
89	1
90	1
91	1
92	1
93	1
94	1
95	1
96	1
97	1
98	1
99	1
100	1
101	1
102	1
103	1
104	1
105	1
106	1
107	1
108	1
109	1
110	1
111	1
112	1
113	1
114	1
115	1
116	1
117	1
118	1
119	1
120	1
121	1
122	1
123	1
124	1
125	1
126	1
127	1
128	1
129	1
130	1
131	1
132	1
133	1
134	1
135	1
136	1
137	1
138	1
139	1
140	1
141	1
142	1
143	1
144	1
145	1
146	1
147	1
148	1
149	1
150	1
151	1
152	1
153	1
154	1
155	1
156	1
157	1
158	1
159	1
160	1
161	1
162	1
163	1
164	1
165	1
166	1
167	1
168	1
169	1
170	1
171	1
172	1
173	1
174	1
175	1
176	1
177	1
178	1
179	1
180	1
181	1
182	1
183	1
184	1
185	1
186	1
187	1
188	1
189	1
190	1
191	1
192	1
193	1
194	1
195	1
196	1
197	1
198	1
199	1
200	1
201	1
202	1
203	1
204	1
205	1
206	1
207	1
208	1
209	1
210	1
211	1
212	1
213	1
214	1
215	1
216	1
217	1
218	1
219	1
220	1
221	1
222	1
223	1
224	1
225	1
226	1
227	1
228	1
229	1
230	1
231	1
232	1
233	1
234	1
235	1
236	1
237	1
238	1
239	1
240	1
241	1
242	1
243	1
244	1
245	1
246	1
247	1
248	1
249	1
250	1
251	1
252	1
253	1
254	1
255	1
256	1
257	1
258	1
259	1
260	1
261	1
262	1
263	1
264	1
265	1
266	1
267	1
268	1
269	1
270	1
271	1
272	1
273	1
274	1
275	1
276	1
277	1
278	1
279	1
280	1
281	1
282	1
283	1
284	1
285	1
286	1
287	1
288	1
289	1
290	1
291	1
292	1
293	1
294	1
295	1
296	1
297	1
298	1
299	1
300	1
301	1
302	1
303	1
304	1
305	1
306	1
307	1
308	1
309	1
310	1
311	1
312	1
313	1
314	1
315	1
316	1
317	1
318	1
319	1
320	1
321	1
322	1
323	1
324	1
325	1
326	1
327	1
328	1
329	1
330	1
331	1
332	1
333	1
334	1
335	1
336	1
337	1
338	1
339	1
340	1
341	1
342	1
343	1
344	1
345	1
346	1
347	1
348	1
349	1
350	1
351	1
352	1
353	1
354	1
355	1
356	1
357	1
358	1
359	1
360	1
361	1
362	1
363	1
364	1
365	1
366	1
367	1
368	1
369	1
370	1
371	1
372	1
373	1
374	1
375	1
376	1
377	1
378	1
379	1
380	1
381	1
382	1
383	1
384	1
385	1
386	1
387	1
388	1
389	1
390	1
391	1
392	1
393	1
394	1
395	1
396	1
397	1
398	1
399	1
400	1
401	1
402	1
403	1
404	1
405	1
406	1
407	1
408	1
409	1
410	1
411	1
412	1
413	1
414	1
415	1
416	1
417	1
418	1
419	1
420	1
421	1
422	1
423	1
424	1
425	1
426	1
427	1
428	1
429	1
430	1
431	1
432	1
433	1
434	1
435	1
436	1
437	1
438	1
439	1
440	1
441	1
442	1
443	1
444	1
445	1
446	1
447	1
448	1
449	1
450	1
451	1
452	1
453	1
454	1
455	1
456	1
457	1
458	1
459	1
DEPOT_SECTION
	1
	-1
EOF
