NAME : 	all_merged_clusters_chengdu_min150
COMMENT : 	"Generated from Chengdu merged cluster data with count >= 150"
TYPE : 	CVRP
DIMENSION : 	78
EDGE_WEIGHT_TYPE : 	EUC_2D
CAPACITY : 	999999
NODE_COORD_SECTION
1	10407000	3067000
2	10411402	3057949
3	10370156	3060254
4	10396947	3064957
5	10406980	3076851
6	10391301	3063091
7	10448904	3049364
8	10346010	3074705
9	10409344	3058136
10	10424278	3065056
11	10418354	3071059
12	10404417	3044605
13	10422152	3063881
14	10420314	3072605
15	10417292	3048429
16	10366127	3096116
17	10411300	3075220
18	10417873	3078292
19	10423542	3064651
20	10389653	3066640
21	10393802	3061444
22	10391726	3068390
23	10450925	3035358
24	10393572	3090550
25	10431939	3027693
26	10405078	3047619
27	10404116	3059339
28	10398150	3078517
29	10365474	3092640
30	10416482	3065872
31	10389985	3083530
32	10432650	3086019
33	10392318	3071697
34	10417658	3071757
35	10416155	3059970
36	10422533	3079309
37	10381403	3063275
38	10388346	3066592
39	10400748	3059161
40	10386136	3080398
41	10404686	3042783
42	10424403	3064560
43	10412526	3076947
44	10387176	3077939
45	10411847	3075716
46	10439211	3028422
47	10390906	3054339
48	10388701	3052852
49	10430868	3086528
50	10432353	3064502
51	10405018	3054117
52	10389312	3051373
53	10388831	3055638
54	10393811	3061929
55	10418488	3071833
56	10421479	3058311
57	10390260	3065840
58	10423773	3065298
59	10419841	3058203
60	10396477	3063702
61	10391271	3082475
62	10412013	3077294
63	10431206	3029867
64	10349853	3056884
65	10416881	3074138
66	10425476	3085924
67	10383827	3035929
68	10407107	3072556
69	10407764	3079474
70	10395988	3051740
71	10397767	3068851
72	10367853	3102964
73	10421427	3065141
74	10432729	3030655
75	10408361	3045560
76	10395232	3042798
77	10452210	3042985
78	10410935	3050679
DEMAND_SECTION
1	0
2	1
3	1
4	1
5	1
6	1
7	1
8	1
9	1
10	1
11	1
12	1
13	1
14	1
15	1
16	1
17	1
18	1
19	1
20	1
21	1
22	1
23	1
24	1
25	1
26	1
27	1
28	1
29	1
30	1
31	1
32	1
33	1
34	1
35	1
36	1
37	1
38	1
39	1
40	1
41	1
42	1
43	1
44	1
45	1
46	1
47	1
48	1
49	1
50	1
51	1
52	1
53	1
54	1
55	1
56	1
57	1
58	1
59	1
60	1
61	1
62	1
63	1
64	1
65	1
66	1
67	1
68	1
69	1
70	1
71	1
72	1
73	1
74	1
75	1
76	1
77	1
78	1
DEPOT_SECTION
	1
	-1
EOF
